c Random generated cnf formula, satisfiable: true
p cnf 10 50
2 -4 -3 0
3 5 9 0
2 -8 5 0
4 -2 8 0
10 -7 9 0
2 -5 4 0
-9 -2 -10 0
4 9 -8 0
10 2 3 0
-2 4 -3 0
-7 3 -2 0
-2 7 -3 0
-7 -8 3 0
4 -2 -6 0
-8 3 10 0
-9 3 6 0
-8 4 3 0
10 7 3 0
5 -9 2 0
-4 -7 -9 0
-10 2 7 0
-3 -9 8 0
-10 -2 5 0
8 -5 -4 0
6 3 -10 0
-7 6 -9 0
3 9 8 0
2 -8 7 0
-6 -3 -4 0
6 -10 2 0
-2 3 1 0
1 4 6 0
7 3 -1 0
-8 10 -7 0
8 -7 -1 0
6 1 7 0
4 5 -9 0
1 8 2 0
9 4 3 0
1 -5 -10 0
7 1 -6 0
6 -3 9 0
-4 -10 -6 0
-4 7 3 0
-10 7 9 0
-8 2 -9 0
-7 -1 -3 0
5 -7 -4 0
-4 -3 9 0
1 -3 -10 0
